Minimize
 obj: 0 X_0_1
Subject To
 out_0:
  + 1 X_0_1 + 1 X_0_2 + 1 X_0_3 + 1 X_0_4
  = 1
 in_0:
  + 1 X_1_0 + 1 X_2_0 + 1 X_3_0 + 1 X_4_0
  = 1
 out_1:
  + 1 X_1_0 + 1 X_1_2 + 1 X_1_3 + 1 X_1_4
  = 1
 in_1:
  + 1 X_0_1 + 1 X_2_1 + 1 X_3_1 + 1 X_4_1
  = 1
 out_2:
  + 1 X_2_0 + 1 X_2_1 + 1 X_2_3 + 1 X_2_4
  = 1
 in_2:
  + 1 X_0_2 + 1 X_1_2 + 1 X_3_2 + 1 X_4_2
  = 1
 out_3:
  + 1 X_3_0 + 1 X_3_1 + 1 X_3_2 + 1 X_3_4
  = 1
 in_3:
  + 1 X_0_3 + 1 X_1_3 + 1 X_2_3 + 1 X_4_3
  = 1
 out_4:
  + 1 X_4_0 + 1 X_4_1 + 1 X_4_2 + 1 X_4_3
  = 1
 in_4:
  + 1 X_0_4 + 1 X_1_4 + 1 X_2_4 + 1 X_3_4
  = 1
 mtz_1_2:
  + 1 U1 - 1 U2 + 4 X_1_2
  <= 3
 mtz_1_3:
  + 1 U1 - 1 U3 + 4 X_1_3
  <= 3
 mtz_1_4:
  + 1 U1 - 1 U4 + 4 X_1_4
  <= 3
 mtz_2_1:
  + 1 U2 - 1 U1 + 4 X_2_1
  <= 3
 mtz_2_3:
  + 1 U2 - 1 U3 + 4 X_2_3
  <= 3
 mtz_2_4:
  + 1 U2 - 1 U4 + 4 X_2_4
  <= 3
 mtz_3_1:
  + 1 U3 - 1 U1 + 4 X_3_1
  <= 3
 mtz_3_2:
  + 1 U3 - 1 U2 + 4 X_3_2
  <= 3
 mtz_3_4:
  + 1 U3 - 1 U4 + 4 X_3_4
  <= 3
 mtz_4_1:
  + 1 U4 - 1 U1 + 4 X_4_1
  <= 3
 mtz_4_2:
  + 1 U4 - 1 U2 + 4 X_4_2
  <= 3
 mtz_4_3:
  + 1 U4 - 1 U3 + 4 X_4_3
  <= 3
 obj1:
  + 834 X_0_1 + 514 X_0_2 + 397 X_0_3 + 379 X_0_4 + 834 X_1_0 + 554 X_1_2 + 663 X_1_3 + 585 X_1_4
  + 514 X_2_0 + 554 X_2_1 + 659 X_2_3 + 136 X_2_4 + 397 X_3_0 + 663 X_3_1 + 659 X_3_2 + 545 X_3_4
  + 379 X_4_0 + 585 X_4_1 + 136 X_4_2 + 545 X_4_3
  <= 1
 obj2:
  + 266 X_0_1 + 918 X_0_2 + 486 X_0_3 + 853 X_0_4 + 266 X_1_0 + 1027 X_1_2 + 693 X_1_3 + 880 X_1_4
  + 918 X_2_0 + 1027 X_2_1 + 520 X_2_3 + 309 X_2_4 + 486 X_3_0 + 693 X_3_1 + 520 X_3_2 + 612 X_3_4
  + 853 X_4_0 + 880 X_4_1 + 309 X_4_2 + 612 X_4_3
  <= 2
 obj3:
  + 201 X_0_1 + 979 X_0_2 + 403 X_0_3 + 703 X_0_4 + 201 X_1_0 + 1098 X_1_2 + 602 X_1_3 + 860 X_1_4
  + 979 X_2_0 + 1098 X_2_1 + 923 X_2_3 + 346 X_2_4 + 403 X_3_0 + 602 X_3_1 + 923 X_3_2 + 580 X_3_4
  + 703 X_4_0 + 860 X_4_1 + 346 X_4_2 + 580 X_4_3
  <= 3
 obj4:
  + 968 X_0_1 + 1014 X_0_2 + 901 X_0_3 + 704 X_0_4 + 968 X_1_0 + 591 X_1_2 + 467 X_1_3 + 351 X_1_4
  + 1014 X_2_0 + 591 X_2_1 + 150 X_2_3 + 788 X_2_4 + 901 X_3_0 + 467 X_3_1 + 150 X_3_2 + 639 X_3_4
  + 704 X_4_0 + 351 X_4_1 + 788 X_4_2 + 639 X_4_3
  <= 4
Bounds
 1 <= U1 <= 4
 1 <= U2 <= 4
 1 <= U3 <= 4
 1 <= U4 <= 4
Binary
 X_0_1
 X_0_2
 X_0_3
 X_0_4
 X_1_0
 X_1_2
 X_1_3
 X_1_4
 X_2_0
 X_2_1
 X_2_3
 X_2_4
 X_3_0
 X_3_1
 X_3_2
 X_3_4
 X_4_0
 X_4_1
 X_4_2
 X_4_3
End
